p cnf 152 704
1 -97 -81 0
-1 97 -81 0
1 97 -82 0
-1 -97 -82 0
21 -97 -85 0
-21 97 -85 0
21 97 -86 0
-21 -97 -86 0
41 -97 -89 0
-41 97 -89 0
41 97 -90 0
-41 -97 -90 0
61 -97 -93 0
-61 97 -93 0
61 97 -94 0
-61 -97 -94 0
2 -81 0
2 -82 0
81 -81 0
82 -82 0
22 -85 0
22 -86 0
85 -85 0
86 -86 0
42 -89 0
42 -90 0
89 -89 0
90 -90 0
62 -93 0
62 -94 0
93 -93 0
94 -94 0
3 -98 -81 0
-3 98 -81 0
3 98 -82 0
-3 -98 -82 0
23 -98 -85 0
-23 98 -85 0
23 98 -86 0
-23 -98 -86 0
43 -98 -89 0
-43 98 -89 0
43 98 -90 0
-43 -98 -90 0
63 -98 -93 0
-63 98 -93 0
63 98 -94 0
-63 -98 -94 0
4 -99 -81 0
-4 99 -81 0
4 99 -82 0
-4 -99 -82 0
24 -99 -85 0
-24 99 -85 0
24 99 -86 0
-24 -99 -86 0
44 -99 -89 0
-44 99 -89 0
44 99 -90 0
-44 -99 -90 0
64 -99 -93 0
-64 99 -93 0
64 99 -94 0
-64 -99 -94 0
5 -100 -81 0
-5 100 -81 0
5 100 -82 0
-5 -100 -82 0
25 -100 -85 0
-25 100 -85 0
25 100 -86 0
-25 -100 -86 0
45 -100 -89 0
-45 100 -89 0
45 100 -90 0
-45 -100 -90 0
65 -100 -93 0
-65 100 -93 0
65 100 -94 0
-65 -100 -94 0
6 -81 0
6 -82 0
81 -81 0
82 -82 0
26 -85 0
26 -86 0
85 -85 0
86 -86 0
46 -89 0
46 -90 0
89 -89 0
90 -90 0
66 -93 0
66 -94 0
93 -93 0
94 -94 0
7 -81 0
7 -82 0
81 -81 0
82 -82 0
27 -85 0
27 -86 0
85 -85 0
86 -86 0
47 -89 0
47 -90 0
89 -89 0
90 -90 0
67 -93 0
67 -94 0
93 -93 0
94 -94 0
8 -101 -81 0
-8 101 -81 0
8 101 -82 0
-8 -101 -82 0
28 -101 -85 0
-28 101 -85 0
28 101 -86 0
-28 -101 -86 0
48 -101 -89 0
-48 101 -89 0
48 101 -90 0
-48 -101 -90 0
68 -101 -93 0
-68 101 -93 0
68 101 -94 0
-68 -101 -94 0
9 -81 0
9 -82 0
81 -81 0
82 -82 0
29 -85 0
29 -86 0
85 -85 0
86 -86 0
49 -89 0
49 -90 0
89 -89 0
90 -90 0
69 -93 0
69 -94 0
93 -93 0
94 -94 0
-10 -81 0
-10 -82 0
81 -81 0
82 -82 0
-30 -85 0
-30 -86 0
85 -85 0
86 -86 0
-50 -89 0
-50 -90 0
89 -89 0
90 -90 0
-70 -93 0
-70 -94 0
93 -93 0
94 -94 0
-11 -81 0
-11 -82 0
81 -81 0
82 -82 0
-31 -85 0
-31 -86 0
85 -85 0
86 -86 0
-51 -89 0
-51 -90 0
89 -89 0
90 -90 0
-71 -93 0
-71 -94 0
93 -93 0
94 -94 0
12 -81 0
12 -82 0
81 -81 0
82 -82 0
32 -85 0
32 -86 0
85 -85 0
86 -86 0
52 -89 0
52 -90 0
89 -89 0
90 -90 0
72 -93 0
72 -94 0
93 -93 0
94 -94 0
13 -81 0
13 -82 0
81 -81 0
82 -82 0
33 -85 0
33 -86 0
85 -85 0
86 -86 0
53 -89 0
53 -90 0
89 -89 0
90 -90 0
73 -93 0
73 -94 0
93 -93 0
94 -94 0
-14 -81 0
-14 -82 0
81 -81 0
82 -82 0
-34 -85 0
-34 -86 0
85 -85 0
86 -86 0
-54 -89 0
-54 -90 0
89 -89 0
90 -90 0
-74 -93 0
-74 -94 0
93 -93 0
94 -94 0
-15 -81 0
-15 -82 0
81 -81 0
82 -82 0
-35 -85 0
-35 -86 0
85 -85 0
86 -86 0
-55 -89 0
-55 -90 0
89 -89 0
90 -90 0
-75 -93 0
-75 -94 0
93 -93 0
94 -94 0
16 -81 0
16 -82 0
81 -81 0
82 -82 0
36 -85 0
36 -86 0
85 -85 0
86 -86 0
56 -89 0
56 -90 0
89 -89 0
90 -90 0
76 -93 0
76 -94 0
93 -93 0
94 -94 0
17 -81 0
17 -82 0
81 -81 0
82 -82 0
37 -85 0
37 -86 0
85 -85 0
86 -86 0
57 -89 0
57 -90 0
89 -89 0
90 -90 0
77 -93 0
77 -94 0
93 -93 0
94 -94 0
18 -81 0
18 -82 0
81 -81 0
82 -82 0
38 -85 0
38 -86 0
85 -85 0
86 -86 0
58 -89 0
58 -90 0
89 -89 0
90 -90 0
78 -93 0
78 -94 0
93 -93 0
94 -94 0
19 -81 0
19 -82 0
81 -81 0
82 -82 0
39 -85 0
39 -86 0
85 -85 0
86 -86 0
59 -89 0
59 -90 0
89 -89 0
90 -90 0
79 -93 0
79 -94 0
93 -93 0
94 -94 0
20 -81 0
20 -82 0
81 -81 0
82 -82 0
40 -85 0
40 -86 0
85 -85 0
86 -86 0
60 -89 0
60 -90 0
89 -89 0
90 -90 0
80 -93 0
80 -94 0
93 -93 0
94 -94 0
-137 81 0
137 -81 0
-138 82 0
137 -82 0
-137 -81 0
-138 -82 0
-141 81 137 0
141 -81 0
141 -137 0
-142 82 138 0
142 -82 0
142 -138 0
-141 -85 0
-142 -86 0
-145 85 141 0
145 -85 0
145 -141 0
-146 86 142 0
146 -86 0
146 -142 0
-145 -89 0
-146 -90 0
-149 89 145 0
149 -89 0
149 -145 0
-150 90 146 0
150 -90 0
150 -146 0
-149 -93 0
-150 -94 0
149 0
150 0
1 -102 -83 0
-1 102 -83 0
1 102 -84 0
-1 -102 -84 0
21 -102 -87 0
-21 102 -87 0
21 102 -88 0
-21 -102 -88 0
41 -102 -91 0
-41 102 -91 0
41 102 -92 0
-41 -102 -92 0
61 -102 -95 0
-61 102 -95 0
61 102 -96 0
-61 -102 -96 0
2 -103 -83 0
-2 103 -83 0
2 103 -84 0
-2 -103 -84 0
22 -103 -87 0
-22 103 -87 0
22 103 -88 0
-22 -103 -88 0
42 -103 -91 0
-42 103 -91 0
42 103 -92 0
-42 -103 -92 0
62 -103 -95 0
-62 103 -95 0
62 103 -96 0
-62 -103 -96 0
3 -83 0
3 -84 0
83 -83 0
84 -84 0
23 -87 0
23 -88 0
87 -87 0
88 -88 0
43 -91 0
43 -92 0
91 -91 0
92 -92 0
63 -95 0
63 -96 0
95 -95 0
96 -96 0
4 -83 0
4 -84 0
83 -83 0
84 -84 0
24 -87 0
24 -88 0
87 -87 0
88 -88 0
44 -91 0
44 -92 0
91 -91 0
92 -92 0
64 -95 0
64 -96 0
95 -95 0
96 -96 0
5 -104 -83 0
-5 104 -83 0
5 104 -84 0
-5 -104 -84 0
25 -104 -87 0
-25 104 -87 0
25 104 -88 0
-25 -104 -88 0
45 -104 -91 0
-45 104 -91 0
45 104 -92 0
-45 -104 -92 0
65 -104 -95 0
-65 104 -95 0
65 104 -96 0
-65 -104 -96 0
6 -83 0
6 -84 0
83 -83 0
84 -84 0
26 -87 0
26 -88 0
87 -87 0
88 -88 0
46 -91 0
46 -92 0
91 -91 0
92 -92 0
66 -95 0
66 -96 0
95 -95 0
96 -96 0
7 -83 0
7 -84 0
83 -83 0
84 -84 0
27 -87 0
27 -88 0
87 -87 0
88 -88 0
47 -91 0
47 -92 0
91 -91 0
92 -92 0
67 -95 0
67 -96 0
95 -95 0
96 -96 0
8 -105 -83 0
-8 105 -83 0
8 105 -84 0
-8 -105 -84 0
28 -105 -87 0
-28 105 -87 0
28 105 -88 0
-28 -105 -88 0
48 -105 -91 0
-48 105 -91 0
48 105 -92 0
-48 -105 -92 0
68 -105 -95 0
-68 105 -95 0
68 105 -96 0
-68 -105 -96 0
9 -106 -83 0
-9 106 -83 0
9 106 -84 0
-9 -106 -84 0
29 -106 -87 0
-29 106 -87 0
29 106 -88 0
-29 -106 -88 0
49 -106 -91 0
-49 106 -91 0
49 106 -92 0
-49 -106 -92 0
69 -106 -95 0
-69 106 -95 0
69 106 -96 0
-69 -106 -96 0
10 -107 -83 0
-10 107 -83 0
10 107 -84 0
-10 -107 -84 0
30 -107 -87 0
-30 107 -87 0
30 107 -88 0
-30 -107 -88 0
50 -107 -91 0
-50 107 -91 0
50 107 -92 0
-50 -107 -92 0
70 -107 -95 0
-70 107 -95 0
70 107 -96 0
-70 -107 -96 0
11 -83 0
11 -84 0
83 -83 0
84 -84 0
31 -87 0
31 -88 0
87 -87 0
88 -88 0
51 -91 0
51 -92 0
91 -91 0
92 -92 0
71 -95 0
71 -96 0
95 -95 0
96 -96 0
12 -108 -83 0
-12 108 -83 0
12 108 -84 0
-12 -108 -84 0
32 -108 -87 0
-32 108 -87 0
32 108 -88 0
-32 -108 -88 0
52 -108 -91 0
-52 108 -91 0
52 108 -92 0
-52 -108 -92 0
72 -108 -95 0
-72 108 -95 0
72 108 -96 0
-72 -108 -96 0
13 -83 0
13 -84 0
83 -83 0
84 -84 0
33 -87 0
33 -88 0
87 -87 0
88 -88 0
53 -91 0
53 -92 0
91 -91 0
92 -92 0
73 -95 0
73 -96 0
95 -95 0
96 -96 0
14 -109 -83 0
-14 109 -83 0
14 109 -84 0
-14 -109 -84 0
34 -109 -87 0
-34 109 -87 0
34 109 -88 0
-34 -109 -88 0
54 -109 -91 0
-54 109 -91 0
54 109 -92 0
-54 -109 -92 0
74 -109 -95 0
-74 109 -95 0
74 109 -96 0
-74 -109 -96 0
15 -110 -83 0
-15 110 -83 0
15 110 -84 0
-15 -110 -84 0
35 -110 -87 0
-35 110 -87 0
35 110 -88 0
-35 -110 -88 0
55 -110 -91 0
-55 110 -91 0
55 110 -92 0
-55 -110 -92 0
75 -110 -95 0
-75 110 -95 0
75 110 -96 0
-75 -110 -96 0
16 -83 0
16 -84 0
83 -83 0
84 -84 0
36 -87 0
36 -88 0
87 -87 0
88 -88 0
56 -91 0
56 -92 0
91 -91 0
92 -92 0
76 -95 0
76 -96 0
95 -95 0
96 -96 0
17 -111 -83 0
-17 111 -83 0
17 111 -84 0
-17 -111 -84 0
37 -111 -87 0
-37 111 -87 0
37 111 -88 0
-37 -111 -88 0
57 -111 -91 0
-57 111 -91 0
57 111 -92 0
-57 -111 -92 0
77 -111 -95 0
-77 111 -95 0
77 111 -96 0
-77 -111 -96 0
18 -112 -83 0
-18 112 -83 0
18 112 -84 0
-18 -112 -84 0
38 -112 -87 0
-38 112 -87 0
38 112 -88 0
-38 -112 -88 0
58 -112 -91 0
-58 112 -91 0
58 112 -92 0
-58 -112 -92 0
78 -112 -95 0
-78 112 -95 0
78 112 -96 0
-78 -112 -96 0
19 -113 -83 0
-19 113 -83 0
19 113 -84 0
-19 -113 -84 0
39 -113 -87 0
-39 113 -87 0
39 113 -88 0
-39 -113 -88 0
59 -113 -91 0
-59 113 -91 0
59 113 -92 0
-59 -113 -92 0
79 -113 -95 0
-79 113 -95 0
79 113 -96 0
-79 -113 -96 0
20 -83 0
20 -84 0
83 -83 0
84 -84 0
40 -87 0
40 -88 0
87 -87 0
88 -88 0
60 -91 0
60 -92 0
91 -91 0
92 -92 0
80 -95 0
80 -96 0
95 -95 0
96 -96 0
-139 83 0
139 -83 0
-140 84 0
139 -84 0
-139 -83 0
-140 -84 0
-143 83 139 0
143 -83 0
143 -139 0
-144 84 140 0
144 -84 0
144 -140 0
-143 -87 0
-144 -88 0
-147 87 143 0
147 -87 0
147 -143 0
-148 88 144 0
148 -88 0
148 -144 0
-147 -91 0
-148 -92 0
-151 91 147 0
151 -91 0
151 -147 0
-152 92 148 0
152 -92 0
152 -148 0
-151 -95 0
-152 -96 0
151 0
152 0
